h 1 -2 0
843239145 -3 0
653795789 -1 0
h 3 0
h 4 -2 0
h -5 2 6 0
1206636751 -6 0
294204621 -4 0
1203828718 -7 0
h -8 0
342437212 -9 0
615588571 -10 0
348674055 -11 0
h 11 0
h -12 -2 10 0
h 5 0
h 12 7 0
